\ Model odmep1_copy
\ LP format - for model browsing. Use MPS format to capture full model detail.
Minimize
 
Subject To
 Obs2.3.0: - v1.0.2.3.0 - v2.0.2.3.0 - v2.1.2.3.0 - v3.0.2.3.0 - v3.1.2.3.0
   - v3.2.2.3.0 = -38363
 PropGuard11.0.1.3.4: - v1.0.1.3.4 + 0.48 g1.0 <= 0
 PropGuard22.0.2.3.0: - v2.0.2.3.0 + 0.52 g2.0 >= 0
 PropGuard22.1.0.0.1: - v2.1.0.0.1 + g2.1 >= 0
 PropGuard12.1.3.4.0: - v2.1.3.4.0 + 0.48 g2.1 <= 0
 PropGuard23.0.2.3.0: - v3.0.2.3.0 + 0.52 g3.0 >= 0
 PropGuard23.1.2.3.0: - v3.1.2.3.0 + 0.52 g3.1 >= 0
 PropGuard13.2.3.4.0: - v3.2.3.4.0 + 0.48 g3.2 <= 0
 FLujoSaleP_3.2: - v3.2.1.3.4 - v3.2.2.3.0 + g3.2 = 0
 Balance1.0.4: v1.0.1.2.3 - v1.0.1.3.4 - v1.0.2.3.0 = 0
 Balance2.1.4: - v2.1.0.0.1 + v2.1.2.3.0 + v2.1.3.4.0 = 0
 Balance3.2.4: v3.2.1.3.4 - v3.2.3.4.0 = 0
 NoMasqueOD1.0.1.2.3: v1.0.1.2.3 - g1.0 <= 0
Bounds
 v1.0.1.2.3 free
 v1.0.1.3.4 free
 v1.0.2.3.0 free
 v2.0.2.3.0 free
 v2.1.0.0.1 free
 v2.1.2.3.0 free
 v2.1.3.4.0 free
 v3.0.2.3.0 free
 v3.1.2.3.0 free
 v3.2.1.3.4 free
 v3.2.2.3.0 free
 v3.2.3.4.0 free
 -infinity <= g1.0 <= 5440
 -infinity <= g2.0 <= 21867
 -infinity <= g2.1 <= 24944
 -infinity <= g3.0 <= 11158
 -infinity <= g3.1 <= 1157
 -infinity <= g3.2 <= 9209
Generals
 v1.0.1.2.3 v1.0.1.3.4 v1.0.2.3.0 v2.0.2.3.0 v2.1.0.0.1 v2.1.2.3.0
 v2.1.3.4.0 v3.0.2.3.0 v3.1.2.3.0 v3.2.1.3.4 v3.2.2.3.0 v3.2.3.4.0
End
